Cubic BN
3.57
0.00000000 0.50000000 0.50000000
0.50000000 0.00000000 0.50000000
0.50000000 0.50000000 0.00000000
B N
1 1
Cartesian
0.00000000 0.00000000 0.00000000
0.25000000 0.25000000 0.25000000
